NAME: tsp45_30
COMMENT: 45-tsp problem (Padberg/Rinaldi)
TYPE: TSP
DIMENSION: 45
EDGE_WEIGHT_TYPE : EUC_2D
NODE_COORD_SECTION
1 24 21
2 17 37
3 7 24
4 23 23
5 32 26
6 35 34
7 27 20
8 13 36
9 19 32
10 22 29
11 1 15
12 10 14
13 32 30
14 18 11
15 11 38
16 18 16
17 1 8
18 21 15
19 23 21
20 4 23
21 16 25
22 35 14
23 22 2
24 35 4
25 18 16
26 34 10
27 8 0
28 33 33
29 39 38
30 23 38
31 37 1
32 8 37
33 23 15
34 27 31
35 38 13
36 3 6
37 14 11
38 28 38
39 1 33
40 20 29
41 16 13
42 10 38
43 12 25
44 3 23
45 28 2
